c turning on binary mode checking
c parsing input formula with 932 variables and 2968 clauses
c finished parsing, read 58161048 bytes from proof file
c detected empty clause; start verification via backward checking
c 2515 of 2968 clauses in core                            
c 830919 of 986332 lemmas in core using 65481664 resolution steps
c 0 RAT lemmas in core; 536854 redundant literals in core lemmas
s VERIFIED
c verification time: 206.345 seconds
